# Instance created by Brandimarte (1993)
150 135 8
0 1
1 2
2 3
3 4
4 5
5 6
6 7
7 8
8 9
10 11
11 12
12 13
13 14
14 15
15 16
16 17
17 18
18 19
20 21
21 22
22 23
23 24
24 25
25 26
26 27
27 28
28 29
30 31
31 32
32 33
33 34
34 35
35 36
36 37
37 38
38 39
40 41
41 42
42 43
43 44
44 45
45 46
46 47
47 48
48 49
50 51
51 52
52 53
53 54
54 55
55 56
56 57
57 58
58 59
60 61
61 62
62 63
63 64
64 65
65 66
66 67
67 68
68 69
70 71
71 72
72 73
73 74
74 75
75 76
76 77
77 78
78 79
80 81
81 82
82 83
83 84
84 85
85 86
86 87
87 88
88 89
90 91
91 92
92 93
93 94
94 95
95 96
96 97
97 98
98 99
100 101
101 102
102 103
103 104
104 105
105 106
106 107
107 108
108 109
110 111
111 112
112 113
113 114
114 115
115 116
116 117
117 118
118 119
120 121
121 122
122 123
123 124
124 125
125 126
126 127
127 128
128 129
130 131
131 132
132 133
133 134
134 135
135 136
136 137
137 138
138 139
140 141
141 142
142 143
143 144
144 145
145 146
146 147
147 148
148 149
4 6 15 7 11 3 5 4 19
2 2 18 3 5
4 7 18 6 3 5 11 2 16
4 4 7 1 1 6 2 2 19
2 4 6 5 3
3 3 5 4 2 7 18
1 4 2
1 0 17
5 4 10 1 10 0 12 7 5 2 14
3 6 15 5 2 7 19
4 7 18 6 3 5 11 2 16
1 0 17
2 1 1 3 13
5 4 10 1 10 0 12 7 5 2 14
5 3 11 0 9 1 18 5 18 2 13
2 5 15 6 13
4 6 15 7 11 3 5 4 19
4 4 7 1 1 6 2 2 19
4 3 11 0 7 5 13 7 3
3 6 15 5 2 7 19
2 2 3 4 5
4 4 7 1 1 6 2 2 19
2 2 18 3 5
2 4 6 5 3
4 3 11 0 7 5 13 7 3
3 6 15 5 2 7 19
5 3 11 0 9 1 18 5 18 2 13
3 3 5 4 2 7 18
1 0 17
2 1 1 3 13
2 2 18 3 5
2 2 3 4 5
5 3 11 0 9 1 18 5 18 2 13
4 3 11 0 7 5 13 7 3
2 5 15 6 13
4 4 7 1 1 6 2 2 19
1 4 2
4 7 18 6 3 5 11 2 16
1 0 17
2 4 6 5 3
2 5 15 6 13
3 6 15 5 2 7 19
1 4 2
4 6 15 7 11 3 5 4 19
5 3 11 0 9 1 18 5 18 2 13
4 4 7 1 1 6 2 2 19
3 3 5 4 2 7 18
2 4 6 5 3
2 2 3 4 5
5 4 10 1 10 0 12 7 5 2 14
2 1 1 3 13
2 5 15 6 13
2 2 18 3 5
4 7 18 6 3 5 11 2 16
5 3 11 0 9 1 18 5 18 2 13
5 4 10 1 10 0 12 7 5 2 14
4 3 11 0 7 5 13 7 3
4 6 15 7 11 3 5 4 19
2 4 6 5 3
2 2 3 4 5
5 4 10 1 10 0 12 7 5 2 14
4 3 11 0 7 5 13 7 3
2 1 1 3 13
1 0 17
2 5 15 6 13
4 4 7 1 1 6 2 2 19
1 4 2
5 3 11 0 9 1 18 5 18 2 13
2 2 18 3 5
3 6 15 5 2 7 19
3 6 15 5 2 7 19
1 0 17
4 6 15 7 11 3 5 4 19
2 5 15 6 13
5 4 10 1 10 0 12 7 5 2 14
4 3 11 0 7 5 13 7 3
5 3 11 0 9 1 18 5 18 2 13
2 1 1 3 13
2 2 18 3 5
2 2 3 4 5
1 0 17
5 4 10 1 10 0 12 7 5 2 14
4 7 18 6 3 5 11 2 16
3 6 15 5 2 7 19
2 5 15 6 13
4 3 11 0 7 5 13 7 3
1 4 2
2 1 1 3 13
5 3 11 0 9 1 18 5 18 2 13
4 6 15 7 11 3 5 4 19
1 0 17
2 5 15 6 13
3 3 5 4 2 7 18
5 3 11 0 9 1 18 5 18 2 13
4 3 11 0 7 5 13 7 3
2 2 18 3 5
2 4 6 5 3
3 6 15 5 2 7 19
4 7 18 6 3 5 11 2 16
5 4 10 1 10 0 12 7 5 2 14
2 1 1 3 13
3 6 15 5 2 7 19
4 7 18 6 3 5 11 2 16
2 2 18 3 5
2 4 6 5 3
1 0 17
2 2 3 4 5
3 3 5 4 2 7 18
5 4 10 1 10 0 12 7 5 2 14
5 3 11 0 9 1 18 5 18 2 13
4 3 11 0 7 5 13 7 3
3 3 5 4 2 7 18
4 7 18 6 3 5 11 2 16
1 0 17
5 3 11 0 9 1 18 5 18 2 13
3 6 15 5 2 7 19
1 4 2
2 2 3 4 5
4 6 15 7 11 3 5 4 19
2 1 1 3 13
5 4 10 1 10 0 12 7 5 2 14
1 4 2
2 2 18 3 5
4 4 7 1 1 6 2 2 19
2 5 15 6 13
4 7 18 6 3 5 11 2 16
4 6 15 7 11 3 5 4 19
5 3 11 0 9 1 18 5 18 2 13
2 4 6 5 3
4 3 11 0 7 5 13 7 3
4 7 18 6 3 5 11 2 16
3 3 5 4 2 7 18
2 1 1 3 13
4 4 7 1 1 6 2 2 19
2 4 6 5 3
2 2 18 3 5
2 5 15 6 13
1 4 2
5 3 11 0 9 1 18 5 18 2 13
1 0 17
5 4 10 1 10 0 12 7 5 2 14
2 4 6 5 3
2 5 15 6 13
4 6 15 7 11 3 5 4 19
4 7 18 6 3 5 11 2 16
1 0 17
5 3 11 0 9 1 18 5 18 2 13
3 3 5 4 2 7 18
2 2 18 3 5
4 4 7 1 1 6 2 2 19
